0000000000000000
0000000000000000
0000000000000000
0011111111111100
0011111100101000
0000000000110000
0000000000110000
0000000000110000
0000000000110000
0000000000110000
0000000000110000
0000000000110000
0000000000110000
0000000000110000
0000000000000000
0000000000000000
